p edge 26 130
e 1 2
e 1 12
e 1 14
e 1 18
e 1 23
e 2 3
e 2 4
e 2 8
e 2 13
e 2 17
e 3 1
e 3 15
e 3 18
e 3 23
e 3 26
e 4 8
e 4 9
e 4 11
e 4 11
e 4 25
e 5 3
e 5 4
e 5 4
e 5 17
e 5 19
e 6 4
e 6 10
e 6 13
e 6 18
e 6 24
e 7 6
e 7 15
e 7 18
e 7 23
e 7 24
e 8 2
e 8 10
e 8 12
e 8 19
e 8 25
e 9 2
e 9 4
e 9 5
e 9 6
e 9 19
e 10 1
e 10 2
e 10 3
e 10 18
e 10 25
e 11 3
e 11 4
e 11 5
e 11 14
e 11 25
e 12 7
e 12 7
e 12 16
e 12 24
e 12 24
e 13 5
e 13 11
e 13 12
e 13 15
e 13 18
e 14 1
e 14 12
e 14 12
e 14 13
e 14 16
e 15 6
e 15 11
e 15 16
e 15 17
e 15 23
e 16 3
e 16 8
e 16 11
e 16 13
e 16 15
e 17 8
e 17 14
e 17 14
e 17 15
e 17 23
e 18 5
e 18 8
e 18 11
e 18 21
e 18 23
e 19 2
e 19 2
e 19 7
e 19 13
e 19 17
e 20 3
e 20 10
e 20 12
e 20 17
e 20 21
e 21 9
e 21 10
e 21 19
e 21 22
e 21 23
e 22 4
e 22 11
e 22 13
e 22 17
e 22 20
e 23 2
e 23 9
e 23 13
e 23 24
e 23 24
e 24 2
e 24 18
e 24 18
e 24 20
e 24 22
e 25 10
e 25 12
e 25 14
e 25 16
e 25 20
e 26 6
e 26 14
e 26 17
e 26 19
e 26 23
